
  32    1
  10

   0   0   6 2 3 5 6 8 10 
   9   1   5 14 12 9 7 4 
   4   5   6 31 25 14 13 12 11 
   2   9   6 31 25 20 15 13 11 
   6   9   5 31 30 20 14 9 
   2   8   7 31 25 22 20 16 14 13 
   5   6   6 30 25 22 20 16 13 
   9   4   6 25 22 19 17 14 13 
   3   5   4 25 19 17 13 
   4   4   4 25 19 17 13 
   4   9   5 30 29 19 18 17 
   8   9   4 24 20 18 16 
   2   6   3 29 24 18 
   6   6   2 24 18 
   4   9   3 30 24 19 
  10   5   2 21 19 
   1   8   4 28 27 24 23 
   8   5   2 23 21 
   9   4   2 27 23 
   2   3   2 28 23 
   1   8   2 28 27 
   2   5   2 27 26 
   7   5   1 26 
   1   3   1 26 
   5   8   1 26 
   5   2   1 32
   5   6   1 32
   2   9   1 32
  10   4   1 32
   7   6   1 32
   2   9   1 32
   0   0   0 
